GLPSOL--GLPK LP/MIP Solver 5.0
Parameter(s) specified in the command line:
 --cpxlp --first inputs/new_tr/order/triang9_0_down_left_input.lp -o solutions/new_tr/triang9_0_down_left_input.lp
Reading problem data from 'inputs/new_tr/order/triang9_0_down_left_input.lp'...
inputs/new_tr/order/triang9_0_down_left_input.lp:11415: warning: lower bound of variable 'm_0_0' redefined
inputs/new_tr/order/triang9_0_down_left_input.lp:11415: warning: upper bound of variable 'm_0_0' redefined
10750 rows, 4096 columns, 31432 non-zeros
4096 integer variables, 3438 of which are binary
15465 lines were read
GLPK Integer Optimizer 5.0
10750 rows, 4096 columns, 31432 non-zeros
4096 integer variables, 3438 of which are binary
Preprocessing...
492 hidden packing inequaliti(es) were detected
65 hidden covering inequaliti(es) were detected
1080 constraint coefficient(s) were reduced
6325 rows, 2282 columns, 17314 non-zeros
2282 integer variables, 2237 of which are binary
Scaling...
 A: min|aij| =  1.000e+00  max|aij| =  9.700e+01  ratio =  9.700e+01
GM: min|aij| =  3.841e-01  max|aij| =  2.603e+00  ratio =  6.776e+00
EQ: min|aij| =  1.508e-01  max|aij| =  1.000e+00  ratio =  6.633e+00
2N: min|aij| =  1.250e-01  max|aij| =  1.625e+00  ratio =  1.300e+01
Constructing initial basis...
Size of triangular part is 5785
Solving LP relaxation...
GLPK Simplex Optimizer 5.0
6325 rows, 2282 columns, 17314 non-zeros
      0: obj =   2.250000000e+02 inf =   8.572e+02 (820)
Perturbing LP to avoid stalling [199]...
   2642: obj =   4.836995357e+02 inf =   3.536e-07 (0) 24
Removing LP perturbation [3887]...
*  3887: obj =   3.790750000e+02 inf =   2.578e-14 (0) 12
OPTIMAL LP SOLUTION FOUND
Integer optimization begins...
Long-step dual simplex will be used
+  3887: mip =     not found yet >=              -inf        (1; 0)
+ 15063: mip =     not found yet >=   3.800000000e+02        (79; 27)
+ 23838: >>>>>   5.190000000e+02 >=   3.800000000e+02  26.8% (143; 31)
+ 26856: >>>>>   4.500000000e+02 >=   3.800000000e+02  15.6% (193; 44)
+ 29262: >>>>>   4.020000000e+02 >=   3.800000000e+02   5.5% (227; 70)
Solution found by heuristic: 399
+ 41517: mip =   3.990000000e+02 >=   3.800000000e+02   4.8% (303; 227)
+ 50883: >>>>>   3.970000000e+02 >=   3.800000000e+02   4.3% (430; 248)
+ 53854: >>>>>   3.940000000e+02 >=   3.800000000e+02   3.6% (422; 341)
+ 59361: >>>>>   3.880000000e+02 >=   3.800000000e+02   2.1% (504; 375)
+ 71966: mip =   3.880000000e+02 >=   3.800000000e+02   2.1% (527; 631)
+ 84219: mip =   3.880000000e+02 >=   3.800000000e+02   2.1% (684; 657)
+ 96737: mip =   3.880000000e+02 >=   3.800000000e+02   2.1% (838; 684)
+109597: mip =   3.880000000e+02 >=   3.800000000e+02   2.1% (926; 713)
+121746: mip =   3.880000000e+02 >=   3.800000000e+02   2.1% (1026; 734)
+135542: mip =   3.880000000e+02 >=   3.800000000e+02   2.1% (1153; 774)
Time used: 60.0 secs.  Memory used: 17.3 Mb.
+146601: mip =   3.880000000e+02 >=   3.800000000e+02   2.1% (1208; 795)
+160272: mip =   3.880000000e+02 >=   3.800000000e+02   2.1% (1313; 814)
+171807: mip =   3.880000000e+02 >=   3.800000000e+02   2.1% (1414; 839)
+183564: mip =   3.880000000e+02 >=   3.800000000e+02   2.1% (1522; 859)
+196194: mip =   3.880000000e+02 >=   3.800000000e+02   2.1% (1666; 893)
+209285: mip =   3.880000000e+02 >=   3.800000000e+02   2.1% (1795; 912)
+221203: mip =   3.880000000e+02 >=   3.800000000e+02   2.1% (1921; 935)
+233119: mip =   3.880000000e+02 >=   3.800000000e+02   2.1% (2042; 963)
+245265: mip =   3.880000000e+02 >=   3.800000000e+02   2.1% (2202; 995)
+255850: mip =   3.880000000e+02 >=   3.800000000e+02   2.1% (2252; 1022)
+269962: mip =   3.880000000e+02 >=   3.800000000e+02   2.1% (2370; 1043)
+281249: mip =   3.880000000e+02 >=   3.800000000e+02   2.1% (2476; 1078)
Time used: 120.0 secs.  Memory used: 26.0 Mb.
+294019: mip =   3.880000000e+02 >=   3.800000000e+02   2.1% (2554; 1097)
+305019: mip =   3.880000000e+02 >=   3.800000000e+02   2.1% (2657; 1118)
+316801: mip =   3.880000000e+02 >=   3.800000000e+02   2.1% (2879; 1142)
+329235: mip =   3.880000000e+02 >=   3.800000000e+02   2.1% (3104; 1168)
+341781: mip =   3.880000000e+02 >=   3.800000000e+02   2.1% (3305; 1191)
+353433: mip =   3.880000000e+02 >=   3.800000000e+02   2.1% (3539; 1211)
+365570: mip =   3.880000000e+02 >=   3.800000000e+02   2.1% (3741; 1234)
+377516: mip =   3.880000000e+02 >=   3.800000000e+02   2.1% (3939; 1252)
+388634: mip =   3.880000000e+02 >=   3.800000000e+02   2.1% (4014; 1275)
+399695: mip =   3.880000000e+02 >=   3.800000000e+02   2.1% (4175; 1300)
+411343: mip =   3.880000000e+02 >=   3.800000000e+02   2.1% (4279; 1318)
+422480: mip =   3.880000000e+02 >=   3.800000000e+02   2.1% (4388; 1347)
Time used: 180.0 secs.  Memory used: 36.3 Mb.
+433984: mip =   3.880000000e+02 >=   3.800000000e+02   2.1% (4440; 1362)
+445435: mip =   3.880000000e+02 >=   3.800000000e+02   2.1% (4557; 1393)
+458993: mip =   3.880000000e+02 >=   3.800000000e+02   2.1% (4662; 1413)
+470458: mip =   3.880000000e+02 >=   3.800000000e+02   2.1% (4744; 1424)
+480862: mip =   3.880000000e+02 >=   3.800000000e+02   2.1% (4793; 1438)
+491756: mip =   3.880000000e+02 >=   3.800000000e+02   2.1% (4890; 1475)
+502866: mip =   3.880000000e+02 >=   3.800000000e+02   2.1% (4987; 1498)
+514458: mip =   3.880000000e+02 >=   3.800000000e+02   2.1% (5122; 1534)
+525734: mip =   3.880000000e+02 >=   3.800000000e+02   2.1% (5208; 1557)
+537877: mip =   3.880000000e+02 >=   3.800000000e+02   2.1% (5417; 1600)
+549589: mip =   3.880000000e+02 >=   3.800000000e+02   2.1% (5587; 1627)
Time used: 240.0 secs.  Memory used: 45.4 Mb.
+561612: mip =   3.880000000e+02 >=   3.800000000e+02   2.1% (5809; 1662)
+574211: mip =   3.880000000e+02 >=   3.800000000e+02   2.1% (6005; 1688)
+586320: mip =   3.880000000e+02 >=   3.800000000e+02   2.1% (6197; 1708)
+597358: mip =   3.880000000e+02 >=   3.800000000e+02   2.1% (6339; 1727)
+608581: mip =   3.880000000e+02 >=   3.800000000e+02   2.1% (6524; 1756)
+619623: mip =   3.880000000e+02 >=   3.800000000e+02   2.1% (6674; 1783)
+631079: mip =   3.880000000e+02 >=   3.800000000e+02   2.1% (6768; 1810)
+643012: mip =   3.880000000e+02 >=   3.800000000e+02   2.1% (6921; 1841)
+654144: mip =   3.880000000e+02 >=   3.800000000e+02   2.1% (6999; 1859)
+665166: mip =   3.880000000e+02 >=   3.800000000e+02   2.1% (7061; 1878)
+677099: mip =   3.880000000e+02 >=   3.800000000e+02   2.1% (7196; 1922)
+688327: mip =   3.880000000e+02 >=   3.800000000e+02   2.1% (7286; 1954)
Time used: 300.1 secs.  Memory used: 55.4 Mb.
+699767: mip =   3.880000000e+02 >=   3.800000000e+02   2.1% (7389; 1975)
+710871: mip =   3.880000000e+02 >=   3.800000000e+02   2.1% (7505; 1995)
+721835: mip =   3.880000000e+02 >=   3.800000000e+02   2.1% (7594; 2011)
+733646: mip =   3.880000000e+02 >=   3.800000000e+02   2.1% (7768; 2041)
+744733: mip =   3.880000000e+02 >=   3.800000000e+02   2.1% (7840; 2070)
+755260: mip =   3.880000000e+02 >=   3.800000000e+02   2.1% (7884; 2085)
+766481: mip =   3.880000000e+02 >=   3.800000000e+02   2.1% (7985; 2114)
+777215: mip =   3.880000000e+02 >=   3.800000000e+02   2.1% (8048; 2132)
+787883: mip =   3.880000000e+02 >=   3.800000000e+02   2.1% (8095; 2152)
+799897: mip =   3.880000000e+02 >=   3.800000000e+02   2.1% (8221; 2179)
+810160: mip =   3.880000000e+02 >=   3.800000000e+02   2.1% (8266; 2199)
+821628: mip =   3.880000000e+02 >=   3.800000000e+02   2.1% (8409; 2244)
Time used: 360.1 secs.  Memory used: 63.6 Mb.
+832734: mip =   3.880000000e+02 >=   3.800000000e+02   2.1% (8655; 2286)
+843709: mip =   3.880000000e+02 >=   3.800000000e+02   2.1% (8871; 2319)
+856412: mip =   3.880000000e+02 >=   3.800000000e+02   2.1% (9017; 2339)
+869197: mip =   3.880000000e+02 >=   3.800000000e+02   2.1% (9216; 2365)
+880150: mip =   3.880000000e+02 >=   3.800000000e+02   2.1% (9324; 2408)
+892188: mip =   3.880000000e+02 >=   3.800000000e+02   2.1% (9538; 2445)
+903341: mip =   3.880000000e+02 >=   3.800000000e+02   2.1% (9771; 2497)
+915315: mip =   3.880000000e+02 >=   3.800000000e+02   2.1% (9998; 2532)
+926529: mip =   3.880000000e+02 >=   3.800000000e+02   2.1% (10219; 2573)
+937663: mip =   3.880000000e+02 >=   3.800000000e+02   2.1% (10447; 2618)
+948691: mip =   3.880000000e+02 >=   3.800000000e+02   2.1% (10628; 2651)
+960051: mip =   3.880000000e+02 >=   3.800000000e+02   2.1% (10775; 2672)
Time used: 420.1 secs.  Memory used: 76.6 Mb.
+971068: mip =   3.880000000e+02 >=   3.800000000e+02   2.1% (10939; 2716)
+982863: mip =   3.880000000e+02 >=   3.800000000e+02   2.1% (11132; 2760)
+994218: mip =   3.880000000e+02 >=   3.800000000e+02   2.1% (11311; 2787)
+1005075: mip =   3.880000000e+02 >=   3.800000000e+02   2.1% (11496; 2817)
+1016034: mip =   3.880000000e+02 >=   3.800000000e+02   2.1% (11670; 2845)
+1026610: mip =   3.880000000e+02 >=   3.800000000e+02   2.1% (11736; 2859)
+1038029: mip =   3.880000000e+02 >=   3.800000000e+02   2.1% (11857; 2891)
+1049793: mip =   3.880000000e+02 >=   3.800000000e+02   2.1% (11976; 2919)
+1060410: mip =   3.880000000e+02 >=   3.800000000e+02   2.1% (12060; 2947)
+1073048: mip =   3.880000000e+02 >=   3.800000000e+02   2.1% (12221; 2976)
+1084319: mip =   3.880000000e+02 >=   3.800000000e+02   2.1% (12330; 2994)
+1095356: mip =   3.880000000e+02 >=   3.800000000e+02   2.1% (12413; 3016)
Time used: 480.1 secs.  Memory used: 86.5 Mb.
+1107121: mip =   3.880000000e+02 >=   3.800000000e+02   2.1% (12548; 3042)
+1118504: mip =   3.880000000e+02 >=   3.800000000e+02   2.1% (12756; 3079)
+1130172: mip =   3.880000000e+02 >=   3.800000000e+02   2.1% (12921; 3122)
+1140815: mip =   3.880000000e+02 >=   3.800000000e+02   2.1% (13032; 3148)
+1153965: mip =   3.880000000e+02 >=   3.800000000e+02   2.1% (13166; 3177)
+1165766: mip =   3.880000000e+02 >=   3.800000000e+02   2.1% (13354; 3214)
+1177149: mip =   3.880000000e+02 >=   3.800000000e+02   2.1% (13524; 3243)
+1187378: mip =   3.880000000e+02 >=   3.800000000e+02   2.1% (13680; 3283)
+1198566: mip =   3.880000000e+02 >=   3.800000000e+02   2.1% (13867; 3316)
+1209663: mip =   3.880000000e+02 >=   3.800000000e+02   2.1% (13983; 3350)
+1220548: mip =   3.880000000e+02 >=   3.800000000e+02   2.1% (14146; 3392)
+1230965: mip =   3.880000000e+02 >=   3.800000000e+02   2.1% (14247; 3415)
Time used: 540.1 secs.  Memory used: 97.5 Mb.
+1241881: mip =   3.880000000e+02 >=   3.800000000e+02   2.1% (14303; 3433)
+1252656: mip =   3.880000000e+02 >=   3.800000000e+02   2.1% (14422; 3458)
+1264391: mip =   3.880000000e+02 >=   3.800000000e+02   2.1% (14553; 3493)
+1274786: mip =   3.880000000e+02 >=   3.800000000e+02   2.1% (14664; 3519)
+1285496: mip =   3.880000000e+02 >=   3.800000000e+02   2.1% (14797; 3545)
+1296120: mip =   3.880000000e+02 >=   3.800000000e+02   2.1% (14954; 3592)
+1307495: mip =   3.880000000e+02 >=   3.800000000e+02   2.1% (15105; 3636)
+1317305: mip =   3.880000000e+02 >=   3.800000000e+02   2.1% (15130; 3646)
+1328106: mip =   3.880000000e+02 >=   3.800000000e+02   2.1% (15212; 3669)
+1338499: mip =   3.880000000e+02 >=   3.800000000e+02   2.1% (15288; 3707)
+1350446: mip =   3.880000000e+02 >=   3.800000000e+02   2.1% (15438; 3731)
Time used: 600.2 secs.  Memory used: 106.3 Mb.
+1362286: mip =   3.880000000e+02 >=   3.800000000e+02   2.1% (15634; 3754)
+1373925: mip =   3.880000000e+02 >=   3.800000000e+02   2.1% (15818; 3776)
+1386292: mip =   3.880000000e+02 >=   3.800000000e+02   2.1% (15984; 3796)
+1397983: mip =   3.880000000e+02 >=   3.800000000e+02   2.1% (16132; 3823)
+1409191: mip =   3.880000000e+02 >=   3.800000000e+02   2.1% (16226; 3843)
+1420757: mip =   3.880000000e+02 >=   3.800000000e+02   2.1% (16361; 3875)
+1432851: mip =   3.880000000e+02 >=   3.800000000e+02   2.1% (16459; 3891)
+1444023: mip =   3.880000000e+02 >=   3.800000000e+02   2.1% (16583; 3922)
+1455680: mip =   3.880000000e+02 >=   3.800000000e+02   2.1% (16704; 3954)
+1465872: mip =   3.880000000e+02 >=   3.800000000e+02   2.1% (16785; 4002)
+1477053: mip =   3.880000000e+02 >=   3.800000000e+02   2.1% (16880; 4022)
+1488859: mip =   3.880000000e+02 >=   3.800000000e+02   2.1% (17021; 4067)
Time used: 660.2 secs.  Memory used: 116.3 Mb.
+1502883: mip =   3.880000000e+02 >=   3.800000000e+02   2.1% (17191; 4102)
+1515081: mip =   3.880000000e+02 >=   3.800000000e+02   2.1% (17329; 4138)
+1526032: mip =   3.880000000e+02 >=   3.800000000e+02   2.1% (17441; 4169)
+1536748: mip =   3.880000000e+02 >=   3.800000000e+02   2.1% (17529; 4193)
+1549631: mip =   3.880000000e+02 >=   3.800000000e+02   2.1% (17631; 4218)
+1561234: mip =   3.880000000e+02 >=   3.800000000e+02   2.1% (17781; 4246)
+1572523: mip =   3.880000000e+02 >=   3.800000000e+02   2.1% (17922; 4272)
+1584981: mip =   3.880000000e+02 >=   3.800000000e+02   2.1% (18066; 4311)
+1596376: mip =   3.880000000e+02 >=   3.800000000e+02   2.1% (18166; 4339)
+1607873: mip =   3.880000000e+02 >=   3.800000000e+02   2.1% (18264; 4368)
+1620288: mip =   3.880000000e+02 >=   3.800000000e+02   2.1% (18463; 4397)
+1632008: mip =   3.880000000e+02 >=   3.800000000e+02   2.1% (18674; 4426)
Time used: 720.3 secs.  Memory used: 126.7 Mb.
+1643056: mip =   3.880000000e+02 >=   3.800000000e+02   2.1% (18740; 4447)
+1653959: mip =   3.880000000e+02 >=   3.800000000e+02   2.1% (18853; 4471)
+1665130: mip =   3.880000000e+02 >=   3.800000000e+02   2.1% (19021; 4495)
+1676006: mip =   3.880000000e+02 >=   3.800000000e+02   2.1% (19100; 4521)
+1688390: mip =   3.880000000e+02 >=   3.800000000e+02   2.1% (19188; 4544)
+1699939: mip =   3.880000000e+02 >=   3.800000000e+02   2.1% (19334; 4582)
+1710841: mip =   3.880000000e+02 >=   3.800000000e+02   2.1% (19417; 4600)
+1721620: mip =   3.880000000e+02 >=   3.800000000e+02   2.1% (19527; 4641)
+1733911: mip =   3.880000000e+02 >=   3.800000000e+02   2.1% (19640; 4670)
+1744962: mip =   3.880000000e+02 >=   3.800000000e+02   2.1% (19775; 4706)
+1756547: mip =   3.880000000e+02 >=   3.800000000e+02   2.1% (19979; 4724)
Time used: 780.3 secs.  Memory used: 135.9 Mb.
+1768063: mip =   3.880000000e+02 >=   3.800000000e+02   2.1% (20126; 4758)
+1779877: mip =   3.880000000e+02 >=   3.800000000e+02   2.1% (20226; 4788)
+1791074: mip =   3.880000000e+02 >=   3.800000000e+02   2.1% (20414; 4821)
+1801590: mip =   3.880000000e+02 >=   3.800000000e+02   2.1% (20511; 4871)
+1813575: mip =   3.880000000e+02 >=   3.800000000e+02   2.1% (20682; 4900)
+1825471: mip =   3.880000000e+02 >=   3.800000000e+02   2.1% (20805; 4926)
+1836893: mip =   3.880000000e+02 >=   3.800000000e+02   2.1% (20977; 4954)
+1848434: mip =   3.880000000e+02 >=   3.800000000e+02   2.1% (21192; 4977)
+1859959: mip =   3.880000000e+02 >=   3.800000000e+02   2.1% (21328; 5005)
+1872554: mip =   3.880000000e+02 >=   3.800000000e+02   2.1% (21494; 5025)
+1884355: mip =   3.880000000e+02 >=   3.800000000e+02   2.1% (21657; 5049)
+1895916: mip =   3.880000000e+02 >=   3.800000000e+02   2.1% (21755; 5069)
Time used: 840.4 secs.  Memory used: 146.0 Mb.
+1906031: mip =   3.880000000e+02 >=   3.800000000e+02   2.1% (21795; 5100)
+1917845: mip =   3.880000000e+02 >=   3.800000000e+02   2.1% (21906; 5123)
+1930358: mip =   3.880000000e+02 >=   3.800000000e+02   2.1% (22056; 5149)
+1941985: mip =   3.880000000e+02 >=   3.800000000e+02   2.1% (22186; 5172)
+1952545: mip =   3.880000000e+02 >=   3.800000000e+02   2.1% (22238; 5184)
+1963880: mip =   3.880000000e+02 >=   3.800000000e+02   2.1% (22388; 5220)
+1975642: mip =   3.880000000e+02 >=   3.800000000e+02   2.1% (22534; 5240)
+1987793: mip =   3.880000000e+02 >=   3.800000000e+02   2.1% (22735; 5261)
+1999614: mip =   3.880000000e+02 >=   3.800000000e+02   2.1% (22852; 5290)
+2011204: mip =   3.880000000e+02 >=   3.800000000e+02   2.1% (22963; 5308)
+2023120: mip =   3.880000000e+02 >=   3.800000000e+02   2.1% (23127; 5335)
+2033982: mip =   3.880000000e+02 >=   3.800000000e+02   2.1% (23231; 5361)
Time used: 900.4 secs.  Memory used: 155.7 Mb.
+2045612: mip =   3.880000000e+02 >=   3.800000000e+02   2.1% (23338; 5378)
+2057103: mip =   3.880000000e+02 >=   3.800000000e+02   2.1% (23511; 5403)
+2069328: mip =   3.880000000e+02 >=   3.800000000e+02   2.1% (23690; 5425)
+2080627: mip =   3.880000000e+02 >=   3.800000000e+02   2.1% (23790; 5445)
+2090141: mip =   3.880000000e+02 >=   3.800000000e+02   2.1% (23896; 5491)
+2101226: mip =   3.880000000e+02 >=   3.800000000e+02   2.1% (23998; 5512)
+2112242: mip =   3.880000000e+02 >=   3.800000000e+02   2.1% (24153; 5532)
+2123106: mip =   3.880000000e+02 >=   3.800000000e+02   2.1% (24269; 5550)
+2134228: mip =   3.880000000e+02 >=   3.800000000e+02   2.1% (24388; 5565)
+2145319: mip =   3.880000000e+02 >=   3.800000000e+02   2.1% (24476; 5585)
+2155738: mip =   3.880000000e+02 >=   3.800000000e+02   2.1% (24557; 5643)
+2166459: mip =   3.880000000e+02 >=   3.800000000e+02   2.1% (24681; 5667)
Time used: 960.4 secs.  Memory used: 164.5 Mb.
+2177869: mip =   3.880000000e+02 >=   3.800000000e+02   2.1% (24780; 5695)
+2188955: mip =   3.880000000e+02 >=   3.800000000e+02   2.1% (24895; 5720)
+2199777: mip =   3.880000000e+02 >=   3.800000000e+02   2.1% (24991; 5748)
+2211815: mip =   3.880000000e+02 >=   3.800000000e+02   2.1% (25056; 5773)
+2222608: mip =   3.880000000e+02 >=   3.800000000e+02   2.1% (25172; 5807)
+2235092: mip =   3.880000000e+02 >=   3.800000000e+02   2.1% (25210; 5838)
+2245830: mip =   3.880000000e+02 >=   3.800000000e+02   2.1% (25260; 5857)
+2256468: mip =   3.880000000e+02 >=   3.800000000e+02   2.1% (25344; 5889)
+2269851: mip =   3.880000000e+02 >=   3.800000000e+02   2.1% (25448; 5909)
+2283253: mip =   3.880000000e+02 >=   3.800000000e+02   2.1% (25595; 5936)
+2294770: mip =   3.880000000e+02 >=   3.800000000e+02   2.1% (25770; 5959)
Time used: 1020.4 secs.  Memory used: 172.0 Mb.
+2305388: mip =   3.880000000e+02 >=   3.800000000e+02   2.1% (25832; 5970)
+2316251: mip =   3.880000000e+02 >=   3.800000000e+02   2.1% (25916; 5988)
+2327376: mip =   3.880000000e+02 >=   3.800000000e+02   2.1% (26066; 6023)
+2338138: mip =   3.880000000e+02 >=   3.800000000e+02   2.1% (26129; 6035)
+2349704: mip =   3.880000000e+02 >=   3.800000000e+02   2.1% (26207; 6057)
+2360716: mip =   3.880000000e+02 >=   3.800000000e+02   2.1% (26337; 6073)
+2372095: mip =   3.880000000e+02 >=   3.800000000e+02   2.1% (26467; 6094)
+2383195: mip =   3.880000000e+02 >=   3.800000000e+02   2.1% (26557; 6109)
+2394224: mip =   3.880000000e+02 >=   3.800000000e+02   2.1% (26670; 6130)
+2404709: mip =   3.880000000e+02 >=   3.800000000e+02   2.1% (26771; 6154)
+2415738: mip =   3.880000000e+02 >=   3.800000000e+02   2.1% (26826; 6178)
+2426327: mip =   3.880000000e+02 >=   3.800000000e+02   2.1% (26877; 6195)
Time used: 1080.5 secs.  Memory used: 179.8 Mb.
+2436665: mip =   3.880000000e+02 >=   3.800000000e+02   2.1% (26929; 6219)
+2446810: mip =   3.880000000e+02 >=   3.800000000e+02   2.1% (27031; 6242)
+2456982: mip =   3.880000000e+02 >=   3.800000000e+02   2.1% (27173; 6261)
+2467144: mip =   3.880000000e+02 >=   3.800000000e+02   2.1% (27241; 6278)
+2479737: mip =   3.880000000e+02 >=   3.800000000e+02   2.1% (27297; 6304)
+2490301: mip =   3.880000000e+02 >=   3.800000000e+02   2.1% (27337; 6317)
+2500662: mip =   3.880000000e+02 >=   3.800000000e+02   2.1% (27373; 6337)
+2512876: mip =   3.880000000e+02 >=   3.800000000e+02   2.1% (27452; 6365)
+2523715: mip =   3.880000000e+02 >=   3.800000000e+02   2.1% (27565; 6390)
+2534844: mip =   3.880000000e+02 >=   3.800000000e+02   2.1% (27734; 6418)
+2549807: mip =   3.880000000e+02 >=   3.800000000e+02   2.1% (27783; 6434)
Time used: 1141.6 secs.  Memory used: 186.4 Mb.
+2560405: mip =   3.880000000e+02 >=   3.800000000e+02   2.1% (27865; 6452)
+2571967: mip =   3.880000000e+02 >=   3.800000000e+02   2.1% (27940; 6473)
+2582287: mip =   3.880000000e+02 >=   3.800000000e+02   2.1% (28011; 6491)
+2593344: mip =   3.880000000e+02 >=   3.800000000e+02   2.1% (28100; 6515)
+2603701: mip =   3.880000000e+02 >=   3.800000000e+02   2.1% (28150; 6529)
+2614697: mip =   3.880000000e+02 >=   3.800000000e+02   2.1% (28219; 6553)
+2626193: mip =   3.880000000e+02 >=   3.800000000e+02   2.1% (28397; 6585)
+2641172: mip =   3.880000000e+02 >=   3.800000000e+02   2.1% (28513; 6603)
+2653882: mip =   3.880000000e+02 >=   3.800000000e+02   2.1% (28576; 6628)
+2664453: mip =   3.880000000e+02 >=   3.800000000e+02   2.1% (28654; 6644)
+2675991: mip =   3.880000000e+02 >=   3.800000000e+02   2.1% (28739; 6671)
Time used: 1201.6 secs.  Memory used: 193.3 Mb.
+2686657: mip =   3.880000000e+02 >=   3.800000000e+02   2.1% (28848; 6692)
+2698509: mip =   3.880000000e+02 >=   3.800000000e+02   2.1% (28960; 6721)
+2708964: mip =   3.880000000e+02 >=   3.800000000e+02   2.1% (28962; 6732)
+2718906: mip =   3.880000000e+02 >=   3.800000000e+02   2.1% (28998; 6750)
+2722947: >>>>>   3.830000000e+02 >=   3.800000000e+02   0.8% (29071; 6760)
+2733412: mip =   3.830000000e+02 >=   3.800000000e+02   0.8% (1924; 64127)
+2743095: mip =   3.830000000e+02 >=   3.800000000e+02   0.8% (1919; 64143)
+2754762: mip =   3.830000000e+02 >=   3.800000000e+02   0.8% (1942; 64230)
+2766017: mip =   3.830000000e+02 >=   3.800000000e+02   0.8% (1953; 64321)
+2776985: mip =   3.830000000e+02 >=   3.800000000e+02   0.8% (1976; 64402)
+2788225: mip =   3.830000000e+02 >=   3.800000000e+02   0.8% (1987; 64487)
+2799307: mip =   3.830000000e+02 >=   3.800000000e+02   0.8% (2001; 64545)
Time used: 1261.7 secs.  Memory used: 196.0 Mb.
+2811720: mip =   3.830000000e+02 >=   3.800000000e+02   0.8% (2019; 64601)
+2822337: mip =   3.830000000e+02 >=   3.800000000e+02   0.8% (2022; 64697)
+2830775: mip =   3.830000000e+02 >=   3.800000000e+02   0.8% (2031; 64988)
+2838822: mip =   3.830000000e+02 >=   3.800000000e+02   0.8% (2040; 65374)
+2845830: mip =   3.830000000e+02 >=   3.800000000e+02   0.8% (2041; 65784)
+2855733: mip =   3.830000000e+02 >=   3.800000000e+02   0.8% (2057; 65821)
+2866364: mip =   3.830000000e+02 >=   3.800000000e+02   0.8% (2080; 65892)
+2877733: mip =   3.830000000e+02 >=   3.800000000e+02   0.8% (2097; 66004)
+2888915: mip =   3.830000000e+02 >=   3.800000000e+02   0.8% (2111; 66058)
+2900140: mip =   3.830000000e+02 >=   3.800000000e+02   0.8% (2119; 66137)
+2911275: mip =   3.830000000e+02 >=   3.800000000e+02   0.8% (2112; 66217)
+2921903: mip =   3.830000000e+02 >=   3.800000000e+02   0.8% (2130; 66303)
Time used: 1321.7 secs.  Memory used: 196.0 Mb.
+2932741: mip =   3.830000000e+02 >=   3.800000000e+02   0.8% (2162; 66369)
+2943745: mip =   3.830000000e+02 >=   3.800000000e+02   0.8% (2176; 66494)
+2954294: mip =   3.830000000e+02 >=   3.800000000e+02   0.8% (2179; 66592)
+2964947: mip =   3.830000000e+02 >=   3.800000000e+02   0.8% (2202; 66669)
+2976215: mip =   3.830000000e+02 >=   3.800000000e+02   0.8% (2226; 66768)
+2987354: mip =   3.830000000e+02 >=   3.800000000e+02   0.8% (2235; 66858)
+2998387: mip =   3.830000000e+02 >=   3.800000000e+02   0.8% (2240; 66949)
+3009645: mip =   3.830000000e+02 >=   3.800000000e+02   0.8% (2250; 67009)
+3020934: mip =   3.830000000e+02 >=   3.800000000e+02   0.8% (2269; 67093)
+3031758: mip =   3.830000000e+02 >=   3.800000000e+02   0.8% (2285; 67190)
+3042431: mip =   3.830000000e+02 >=   3.800000000e+02   0.8% (2295; 67303)
+3053893: mip =   3.830000000e+02 >=   3.800000000e+02   0.8% (2309; 67415)
Time used: 1381.8 secs.  Memory used: 196.0 Mb.
+3066868: mip =   3.830000000e+02 >=   3.800000000e+02   0.8% (2314; 67511)
+3077991: mip =   3.830000000e+02 >=   3.800000000e+02   0.8% (2348; 67571)
+3089306: mip =   3.830000000e+02 >=   3.800000000e+02   0.8% (2383; 67628)
+3100393: mip =   3.830000000e+02 >=   3.800000000e+02   0.8% (2404; 67666)
+3110527: mip =   3.830000000e+02 >=   3.800000000e+02   0.8% (2427; 67820)
+3121313: mip =   3.830000000e+02 >=   3.800000000e+02   0.8% (2435; 67985)
+3132396: mip =   3.830000000e+02 >=   3.800000000e+02   0.8% (2444; 68067)
+3142665: mip =   3.830000000e+02 >=   3.800000000e+02   0.8% (2447; 68144)
+3154895: mip =   3.830000000e+02 >=   3.800000000e+02   0.8% (2447; 68207)
+3165289: mip =   3.830000000e+02 >=   3.800000000e+02   0.8% (2445; 68265)
+3175559: mip =   3.830000000e+02 >=   3.800000000e+02   0.8% (2439; 68346)
Time used: 1441.8 secs.  Memory used: 196.0 Mb.
+3184802: mip =   3.830000000e+02 >=   3.800000000e+02   0.8% (2442; 68387)
+3194274: mip =   3.830000000e+02 >=   3.800000000e+02   0.8% (2461; 68423)
+3204436: mip =   3.830000000e+02 >=   3.800000000e+02   0.8% (2470; 68497)
+3213747: mip =   3.830000000e+02 >=   3.800000000e+02   0.8% (2467; 68553)
+3224694: mip =   3.830000000e+02 >=   3.800000000e+02   0.8% (2483; 68623)
+3235088: mip =   3.830000000e+02 >=   3.800000000e+02   0.8% (2493; 68680)
+3246293: mip =   3.830000000e+02 >=   3.800000000e+02   0.8% (2502; 68760)
+3256517: mip =   3.830000000e+02 >=   3.800000000e+02   0.8% (2504; 68835)
+3266739: mip =   3.830000000e+02 >=   3.800000000e+02   0.8% (2511; 68902)
+3278300: mip =   3.830000000e+02 >=   3.800000000e+02   0.8% (2516; 68957)
+3288122: mip =   3.830000000e+02 >=   3.800000000e+02   0.8% (2504; 69020)
+3298095: mip =   3.830000000e+02 >=   3.800000000e+02   0.8% (2542; 69101)
Time used: 1501.8 secs.  Memory used: 196.0 Mb.
+3307783: mip =   3.830000000e+02 >=   3.800000000e+02   0.8% (2544; 69210)
+3317003: mip =   3.830000000e+02 >=   3.800000000e+02   0.8% (2547; 69473)
+3327568: mip =   3.830000000e+02 >=   3.800000000e+02   0.8% (2566; 69522)
+3335310: mip =   3.830000000e+02 >=   3.800000000e+02   0.8% (2577; 69729)
+3345629: mip =   3.830000000e+02 >=   3.800000000e+02   0.8% (2594; 69843)
+3355735: mip =   3.830000000e+02 >=   3.800000000e+02   0.8% (2604; 69882)
+3365680: mip =   3.830000000e+02 >=   3.800000000e+02   0.8% (2601; 70007)
+3374525: mip =   3.830000000e+02 >=   3.800000000e+02   0.8% (2606; 70093)
+3384213: mip =   3.830000000e+02 >=   3.800000000e+02   0.8% (2617; 70134)
+3394633: mip =   3.830000000e+02 >=   3.800000000e+02   0.8% (2623; 70196)
+3405446: mip =   3.830000000e+02 >=   3.800000000e+02   0.8% (2616; 70247)
Time used: 1561.9 secs.  Memory used: 196.0 Mb.
+3415885: mip =   3.830000000e+02 >=   3.800000000e+02   0.8% (2638; 70294)
+3426702: mip =   3.830000000e+02 >=   3.800000000e+02   0.8% (2647; 70370)
+3436790: mip =   3.830000000e+02 >=   3.800000000e+02   0.8% (2662; 70404)
+3447458: mip =   3.830000000e+02 >=   3.800000000e+02   0.8% (2661; 70467)
+3457540: mip =   3.830000000e+02 >=   3.800000000e+02   0.8% (2679; 70515)
+3467551: mip =   3.830000000e+02 >=   3.800000000e+02   0.8% (2682; 70559)
+3478256: mip =   3.830000000e+02 >=   3.800000000e+02   0.8% (2693; 70571)
+3488334: mip =   3.830000000e+02 >=   3.800000000e+02   0.8% (2693; 70655)
+3498203: mip =   3.830000000e+02 >=   3.800000000e+02   0.8% (2688; 70734)
+3508840: mip =   3.830000000e+02 >=   3.800000000e+02   0.8% (2694; 70784)
+3518882: mip =   3.830000000e+02 >=   3.800000000e+02   0.8% (2699; 70814)
+3528253: mip =   3.830000000e+02 >=   3.800000000e+02   0.8% (2724; 70873)
Time used: 1622.1 secs.  Memory used: 196.0 Mb.
+3539017: mip =   3.830000000e+02 >=   3.800000000e+02   0.8% (2734; 70924)
+3549746: mip =   3.830000000e+02 >=   3.800000000e+02   0.8% (2750; 70995)
+3559944: mip =   3.830000000e+02 >=   3.800000000e+02   0.8% (2761; 71031)
+3570499: mip =   3.830000000e+02 >=   3.800000000e+02   0.8% (2771; 71091)
+3581047: mip =   3.830000000e+02 >=   3.800000000e+02   0.8% (2790; 71156)
+3592053: mip =   3.830000000e+02 >=   3.800000000e+02   0.8% (2811; 71221)
+3602334: mip =   3.830000000e+02 >=   3.800000000e+02   0.8% (2829; 71309)
+3614180: mip =   3.830000000e+02 >=   3.800000000e+02   0.8% (2831; 71360)
+3625988: mip =   3.830000000e+02 >=   3.800000000e+02   0.8% (2845; 71463)
+3636637: mip =   3.830000000e+02 >=   3.800000000e+02   0.8% (2866; 71541)
+3647297: mip =   3.830000000e+02 >=   3.800000000e+02   0.8% (2872; 71632)
Time used: 1682.2 secs.  Memory used: 196.0 Mb.
+3657663: mip =   3.830000000e+02 >=   3.800000000e+02   0.8% (2880; 71662)
+3668580: mip =   3.830000000e+02 >=   3.800000000e+02   0.8% (2890; 71746)
+3678894: mip =   3.830000000e+02 >=   3.800000000e+02   0.8% (2890; 71767)
+3688486: mip =   3.830000000e+02 >=   3.800000000e+02   0.8% (2912; 71797)
+3698379: mip =   3.830000000e+02 >=   3.800000000e+02   0.8% (2914; 71877)
+3708417: mip =   3.830000000e+02 >=   3.800000000e+02   0.8% (2922; 71912)
+3717996: mip =   3.830000000e+02 >=   3.800000000e+02   0.8% (2924; 71937)
+3727652: mip =   3.830000000e+02 >=   3.800000000e+02   0.8% (2922; 71967)
+3738223: mip =   3.830000000e+02 >=   3.800000000e+02   0.8% (2922; 72018)
+3748218: mip =   3.830000000e+02 >=   3.800000000e+02   0.8% (2919; 72067)
+3758810: mip =   3.830000000e+02 >=   3.800000000e+02   0.8% (2930; 72120)
+3768663: mip =   3.830000000e+02 >=   3.800000000e+02   0.8% (2931; 72186)
Time used: 1742.8 secs.  Memory used: 196.0 Mb.
+3778713: mip =   3.830000000e+02 >=   3.800000000e+02   0.8% (2929; 72233)
+3788239: mip =   3.830000000e+02 >=   3.800000000e+02   0.8% (2929; 72285)
+3798382: mip =   3.830000000e+02 >=   3.800000000e+02   0.8% (2933; 72342)
+3809323: mip =   3.830000000e+02 >=   3.800000000e+02   0.8% (2929; 72411)
+3818739: mip =   3.830000000e+02 >=   3.800000000e+02   0.8% (2941; 72455)
+3827820: mip =   3.830000000e+02 >=   3.800000000e+02   0.8% (2941; 72498)
+3839897: mip =   3.830000000e+02 >=   3.800000000e+02   0.8% (2964; 72574)
+3849715: mip =   3.830000000e+02 >=   3.800000000e+02   0.8% (2996; 72627)
+3860504: mip =   3.830000000e+02 >=   3.800000000e+02   0.8% (3015; 72645)
+3870602: mip =   3.830000000e+02 >=   3.800000000e+02   0.8% (3033; 72667)
